









































































































1 57 15 52 65 48 29 68 24 
46 47 40 8 2 31 44 
37 64 16 58 27 55 71 70 
4 9 7 11 28 12 10 18 72 
13 38 50 19 49 3 30 59 5 
22 41 76 0 32 45 33 21 53 
51 36 66 20 74 17 54 75 
42 26 61 67 34 43 35 60 14 62 
23 6 63 25 73 56 39 69 
